Cost: 416
0-40-9-32-44-17-0
0-12-39-31-10-26-0
0-34-46-8-19-14-35-0
0-47-5-37-15-13-27-0
0-23-43-42-22-28-2-0
0-30-48-29-45-4-0
Cost: 416
0-47-5-37-15-13-27-0
0-26-10-31-39-12-0
0-17-44-32-9-40-0
0-23-43-42-22-28-2-0
0-30-48-29-45-4-0
0-35-14-19-8-46-34-0
Cost: 416
0-40-9-32-44-17-0
0-12-39-31-10-26-0
0-34-46-8-19-14-35-0
0-47-5-37-15-13-27-0
0-23-43-42-22-28-2-0
0-30-48-29-45-4-0
Cost: 416
0-4-45-29-30-6-0
0-48-47-37-15-13-27-0
0-2-28-22-42-43-23-0
0-40-9-32-44-17-0
0-26-10-31-39-12-0
0-35-14-19-8-46-34-0
Cost: 416
0-47-5-37-15-13-27-0
0-2-28-22-42-43-23-0
0-35-14-19-8-46-34-0
0-4-45-29-48-30-0
0-40-9-32-44-17-0
0-26-10-31-39-12-0
Cost: 416
0-17-44-32-9-40-0
0-26-10-31-39-12-0
0-23-43-42-22-28-2-0
0-4-45-29-48-30-0
0-47-5-37-15-13-27-0
0-35-14-19-8-46-34-0
Cost: 416
0-47-5-37-15-13-27-0
0-35-14-19-8-46-34-0
0-2-28-22-42-43-23-0
0-30-48-29-45-4-0
0-12-39-31-10-26-0
0-17-44-32-9-40-0
Cost: 416
0-47-5-37-15-13-27-0
0-35-14-19-8-46-34-0
0-2-28-22-42-43-23-0
0-30-48-29-45-4-0
0-12-39-31-10-26-0
0-17-44-32-9-40-0
Cost: 416
0-47-5-37-15-13-27-0
0-35-14-19-8-46-34-0
0-2-28-22-42-43-23-0
0-30-48-29-45-4-0
0-12-39-31-10-26-0
0-17-44-32-9-40-0
Cost: 416
0-47-5-37-15-13-27-0
0-35-14-19-8-46-34-0
0-2-28-22-42-43-23-0
0-30-48-29-45-4-0
0-12-39-31-10-26-0
0-17-44-32-9-40-0
Cost: 416
0-4-45-29-48-30-0
0-47-5-37-15-13-27-0
0-12-39-31-10-26-0
0-35-14-19-8-46-34-0
0-23-43-42-22-28-2-0
0-40-9-32-44-17-0
Cost: 416
0-4-45-29-30-6-0
0-12-39-31-10-26-0
0-48-47-37-15-13-27-0
0-40-9-32-44-17-0
0-23-43-42-22-28-2-0
0-34-46-8-19-14-35-0
Cost: 416
0-35-14-19-8-46-34-0
0-17-44-32-9-40-0
0-26-10-31-39-12-0
0-23-43-42-22-28-2-0
0-6-30-29-45-4-0
0-27-13-15-37-47-48-0
Cost: 416
0-26-10-31-39-12-0
0-47-5-37-15-13-27-0
0-34-46-8-19-14-35-0
0-40-9-32-44-17-0
0-23-43-42-22-28-2-0
0-30-48-29-45-4-0
Cost: 416
0-35-14-19-8-46-34-0
0-17-44-32-9-40-0
0-26-10-31-39-12-0
0-23-43-42-22-28-2-0
0-6-30-29-45-4-0
0-27-13-15-37-47-48-0
Cost: 416
0-35-14-19-8-46-34-0
0-17-44-32-9-40-0
0-26-10-31-39-12-0
0-23-43-42-22-28-2-0
0-6-30-29-45-4-0
0-27-13-15-37-47-48-0
Cost: 416
0-30-48-29-45-4-0
0-40-9-32-44-17-0
0-23-43-42-22-28-2-0
0-26-10-31-39-12-0
0-35-14-19-8-46-34-0
0-47-5-37-15-13-27-0
Cost: 416
0-48-47-37-15-13-27-0
0-35-14-19-8-46-34-0
0-4-45-29-30-6-0
0-17-44-32-9-40-0
0-12-39-31-10-26-0
0-2-28-22-42-43-23-0
Cost: 416
0-2-28-22-42-43-23-0
0-12-39-31-10-26-0
0-17-44-32-9-40-0
0-35-14-19-8-46-34-0
0-27-13-15-37-5-47-0
0-4-45-29-48-30-0
Cost: 416
0-2-28-22-42-43-23-0
0-12-39-31-10-26-0
0-17-44-32-9-40-0
0-35-14-19-8-46-34-0
0-27-13-15-37-5-47-0
0-4-45-29-48-30-0
Cost: 416
0-27-13-15-37-5-47-0
0-34-46-8-19-14-35-0
0-4-45-29-48-30-0
0-40-9-32-44-17-0
0-2-28-22-42-43-23-0
0-12-39-31-10-26-0
Cost: 416
0-27-13-15-37-5-47-0
0-34-46-8-19-14-35-0
0-4-45-29-48-30-0
0-40-9-32-44-17-0
0-2-28-22-42-43-23-0
0-12-39-31-10-26-0
Cost: 416
0-26-10-31-39-12-0
0-6-30-29-45-4-0
0-48-47-37-15-13-27-0
0-2-28-22-42-43-23-0
0-17-44-32-9-40-0
0-35-14-19-8-46-34-0
Cost: 416
0-27-13-15-37-5-47-0
0-34-46-8-19-14-35-0
0-4-45-29-48-30-0
0-40-9-32-44-17-0
0-2-28-22-42-43-23-0
0-12-39-31-10-26-0
Cost: 416
0-48-47-37-15-13-27-0
0-35-14-19-8-46-34-0
0-4-45-29-30-6-0
0-17-44-32-9-40-0
0-12-39-31-10-26-0
0-2-28-22-42-43-23-0
Cost: 416
0-2-28-22-42-43-23-0
0-12-39-31-10-26-0
0-17-44-32-9-40-0
0-35-14-19-8-46-34-0
0-27-13-15-37-5-47-0
0-4-45-29-48-30-0
Cost: 416
0-40-9-32-44-17-0
0-35-14-19-8-46-34-0
0-4-45-29-48-30-0
0-23-43-42-22-28-2-0
0-12-39-31-10-26-0
0-27-13-15-37-5-47-0
Cost: 418
0-4-45-29-48-30-0
0-34-19-14-35-8-46-0
0-27-13-15-37-5-47-0
0-17-44-32-9-40-0
0-2-28-22-42-43-23-0
0-26-10-31-39-12-0
Cost: 416
0-4-45-29-48-30-0
0-40-9-32-44-17-0
0-34-46-8-19-14-35-0
0-2-28-22-42-43-23-0
0-27-13-15-37-5-47-0
0-12-39-31-10-26-0
Cost: 416
0-34-46-8-19-14-35-0
0-23-43-42-22-28-2-0
0-47-5-37-15-13-27-0
0-12-39-31-10-26-0
0-4-45-29-48-30-0
0-17-44-32-9-40-0
Cost: 416
0-48-47-37-15-13-27-0
0-35-14-19-8-46-34-0
0-12-39-31-10-26-0
0-40-9-32-44-17-0
0-4-45-29-30-6-0
0-2-28-22-42-43-23-0
